% long01
% StartDate: 2010-01-01
% EndDate: 2010-01-28
firstDay = 4
numDays = 28
Skills = {Nurse, HeadNurse}
E = {Nurse}
L = {Nurse}
D = {Nurse}
N = {Nurse}
DH = {HeadNurse}
ShiftTypes = {E, L, D, N, DH}
CoverRequirements = [|8, 8, 5, 6, 2 |6, 6, 3, 4, 1 |6, 6, 3, 4, 1 |8, 8, 5, 6, 2 |8, 8, 5, 6, 2 |8, 8, 5, 6, 2 |8, 8, 5, 6, 2 |8, 8, 5, 6, 2 |6, 6, 3, 4, 1 |6, 6, 3, 4, 1 |8, 8, 5, 6, 2 |8, 8, 5, 6, 2 |8, 8, 5, 6, 2 |8, 8, 5, 6, 2 |8, 8, 5, 6, 2 |6, 6, 3, 4, 1 |6, 6, 3, 4, 1 |8, 8, 5, 6, 2 |8, 8, 5, 6, 2 |8, 8, 5, 6, 2 |8, 8, 5, 6, 2 |8, 8, 5, 6, 2 |6, 6, 3, 4, 1 |6, 6, 3, 4, 1 |8, 8, 5, 6, 2 |8, 8, 5, 6, 2 |8, 8, 5, 6, 2 |8, 8, 5, 6, 2 |] 
